;; solver : CVC5
;; version : CVC5 - v 1.0.0  
;; option : --check-models --produce-models
;; Generated Bug Type : Soundness Bug (ex1_bug/cvc5_soundness_bug_3.smt2)
(set-info :smt-lib-version 2.6)
(set-logic QF_SLIA)
(set-info :source |
Generated by: Wei-Cheng Wu
Generated on: 2019-07-28
Generator: Py-Conbyte
Application: Concolic execution of Python code
Target solver: CVC4, Z3, Z3str3, Z3-Trau
|)
(set-info :license "https://creativecommons.org/licenses/by/4.0/")
(set-info :category "industrial")
(set-info :status unknown)
(declare-fun tstr () String)
(assert (>= ( + ( + 0 2  ) 1  ) ( str.len tstr  )))
(assert ( ite ( str.prefixof "-" ( str.substr tstr 0 ( - ( + 0 2  ) 0  )  )  ) ( and ( ite ( = (- 1) ( str.to_int ( str.substr ( str.substr tstr 0 ( - ( + 0 2  ) 0  )  ) 1 ( - ( str.len ( str.substr tstr 0 ( - ( + 0 2  ) 0  )  )  ) 1  )  )  )  ) false true  ) ( > ( str.len ( str.substr tstr 0 ( - ( + 0 2  ) 0  )  )  ) 1  )  ) ( ite ( = (- 1) ( str.to_int ( str.substr tstr 0 ( - ( + 0 2  ) 0  )  )  )  ) false true  )  ))
(assert (not ( < ( - ( str.len tstr  ) 0  ) 2  )))
(assert (not ( < ( + 0 2  ) ( str.len tstr  )  )))
(check-sat)
(get-model)
(exit)
